p cnf 39 115
a 31 7 0
e 1 2 3 4 5 6 8 9 10 11 12 13 14 15 16 17 18 19 20 21 22 23 24 25 26 27 28 29 30 32 33 34 35 36 37 38 39 0
-2 -1 0
-2 1 0
2 3 -4 0
-2 -3 -4 0
2 -3 4 0
-2 3 4 0
-4 5 -6 0
4 -5 -6 0
-4 -5 6 0
4 5 6 0
-8 9 -10 0
8 -9 -10 0
-8 -9 10 0
8 9 10 0
11 10 0
11 2 0
-10 -2 -11 0
-12 -7 0
-12 -11 0
7 11 12 0
12 -2 -13 0
-12 2 -13 0
12 2 13 0
-12 -2 13 0
-6 13 -14 0
6 -13 -14 0
-6 -13 14 0
6 13 14 0
15 -3 0
15 -1 0
3 1 -15 0
-3 15 -16 0
3 -15 -16 0
-3 -15 16 0
3 15 16 0
17 -11 0
17 -2 0
11 2 -17 0
17 10 -18 0
-17 -10 -18 0
17 -10 18 0
-17 10 18 0
-19 15 0
-19 -7 0
-15 7 19 0
20 -19 0
20 -1 0
19 1 -20 0
-18 -20 -21 0
18 20 -21 0
-18 20 21 0
18 -20 21 0
-22 -16 0
-22 -21 0
16 21 22 0
10 -1 -24 0
-10 1 -24 0
10 1 24 0
-10 -1 24 0
-25 12 0
-25 -24 0
-12 24 25 0
26 -23 0
26 -25 0
23 25 -26 0
27 -22 0
27 26 0
22 -26 -27 0
28 -14 0
28 27 0
14 -27 -28 0
-29 2 0
-29 11 0
-2 -11 29 0
30 28 0
30 -29 0
-28 29 -30 0
-31 -8 -32 0
31 8 -32 0
-31 8 32 0
31 -8 32 0
32 -11 -33 0
-32 11 -33 0
32 11 33 0
-32 -11 33 0
34 -24 0
34 17 0
24 -17 -34 0
-34 1 -35 0
34 -1 -35 0
-34 -1 35 0
34 1 35 0
36 -33 0
36 35 0
33 -35 -36 0
37 -1 0
37 9 0
1 -9 -37 0
-38 -36 0
-38 -37 0
36 37 38 0
-39 30 0
-39 -38 0
-30 38 39 0
-17 -15 -21 -10 33 0
-28 -14 23 1 -26 -9 4 0
-9 -23 -18 -20 -22 0
28 8 -6 4 35 0
26 29 -17 5 27 28 34 -3 0
-2 17 22 5 12 33 -25 0
16 32 12 2 31 18 -14 0
-34 -33 11 -25 -16 37 -29 -13 0
-39 26 -1 -21 -25 -12 0
-15 -31 -8 0
39 0
